db/data/51886345295105722423993981163123670.z3.out
-------------------
2500.139924817
